(set-logic QF_LIA)
(declare-fun x0 () Int)
(declare-fun x1 () Int)
(declare-fun x2 () Int)
(declare-fun x3 () Int)
(declare-fun x4 () Int)
(declare-fun x5 () Int)
(declare-fun x6 () Int)
(declare-fun x7 () Int)
(declare-fun x8 () Int)
(declare-fun x9 () Int)
(declare-fun A0 () Bool)
(declare-fun A1 () Bool)
(declare-fun A2 () Bool)
(declare-fun A3 () Bool)
(declare-fun A4 () Bool)
(declare-fun A5 () Bool)
(declare-fun A6 () Bool)
(declare-fun A7 () Bool)
(declare-fun A8 () Bool)
(declare-fun A9 () Bool)
(assert (let ((.def_0 (* 1 x4))) (let ((.def_1 (* (- 1) x1))) (let ((.def_2 (+ .def_1 .def_0))) (let ((.def_3 (< .def_2 1))) (let ((.def_4 (not .def_3))) (let ((.def_5 (and A6 .def_4))) (let ((.def_6 (not .def_5))) (let ((.def_7 (* 1 x2))) (let ((.def_8 (< .def_7 (- 1)))) (let ((.def_9 (not .def_8))) (let ((.def_10 (* 1 x1))) (let ((.def_11 (* (- 1) x5))) (let ((.def_12 (+ .def_11 .def_10))) (let ((.def_13 (< .def_12 (- 1)))) (let ((.def_14 (not .def_13))) (let ((.def_15 (or .def_14 .def_9))) (let ((.def_16 (or .def_15 .def_6))) (let ((.def_17 (not .def_16))) (let ((.def_18 (* 1 x0))) (let ((.def_19 (< .def_18 1))) (let ((.def_20 (not A2))) (let ((.def_21 (and .def_20 .def_19))) (let ((.def_22 (* 1 x6))) (let ((.def_23 (+ .def_11 .def_22))) (let ((.def_24 (< .def_23 1))) (let ((.def_25 (not .def_24))) (let ((.def_26 (or .def_25 A7))) (let ((.def_27 (and .def_26 .def_21))) (let ((.def_28 (or .def_27 .def_17))) (let ((.def_29 (* 1 x5))) (let ((.def_30 (* 1 x7))) (let ((.def_31 (+ .def_30 .def_29))) (let ((.def_32 (< .def_31 (- 1)))) (let ((.def_33 (and .def_32 A6))) (let ((.def_34 (* (- 1) x4))) (let ((.def_35 (* (- 1) x0))) (let ((.def_36 (+ .def_35 .def_34))) (let ((.def_37 (< .def_36 1))) (let ((.def_38 (not .def_37))) (let ((.def_39 (< .def_34 (- 1)))) (let ((.def_40 (and .def_39 .def_38))) (let ((.def_41 (or .def_40 .def_33))) (let ((.def_42 (+ .def_29 .def_35))) (let ((.def_43 (< .def_42 1))) (let ((.def_44 (not .def_43))) (let ((.def_45 (or A8 .def_44))) (let ((.def_46 (< .def_35 (- 1)))) (let ((.def_47 (not .def_46))) (let ((.def_48 (* (- 1) x2))) (let ((.def_49 (* (- 1) x7))) (let ((.def_50 (+ .def_49 .def_48))) (let ((.def_51 (< .def_50 1))) (let ((.def_52 (and .def_51 .def_47))) (let ((.def_53 (or .def_52 .def_45))) (let ((.def_54 (not .def_53))) (let ((.def_55 (and .def_54 .def_41))) (let ((.def_56 (not .def_55))) (let ((.def_57 (or .def_56 .def_28))) (let ((.def_58 (* 1 x8))) (let ((.def_59 (+ .def_58 .def_34))) (let ((.def_60 (< .def_59 1))) (let ((.def_61 (not .def_60))) (let ((.def_62 (+ .def_49 .def_29))) (let ((.def_63 (< .def_62 (- 1)))) (let ((.def_64 (and .def_63 .def_61))) (let ((.def_65 (+ .def_18 .def_49))) (let ((.def_66 (< .def_65 (- 1)))) (let ((.def_67 (not A5))) (let ((.def_68 (and .def_67 .def_66))) (let ((.def_69 (and .def_68 .def_64))) (let ((.def_70 (not .def_69))) (let ((.def_71 (not A3))) (let ((.def_72 (= .def_71 A1))) (let ((.def_73 (* (- 1) x3))) (let ((.def_74 (< .def_73 (- 1)))) (let ((.def_75 (or .def_74 .def_67))) (let ((.def_76 (or .def_75 .def_72))) (let ((.def_77 (not .def_76))) (let ((.def_78 (and .def_77 .def_70))) (let ((.def_79 (not .def_78))) (let ((.def_80 (< .def_0 (- 1)))) (let ((.def_81 (not .def_80))) (let ((.def_82 (< .def_29 (- 1)))) (let ((.def_83 (= .def_82 .def_81))) (let ((.def_84 (not .def_83))) (let ((.def_85 (or .def_67 A4))) (let ((.def_86 (not .def_85))) (let ((.def_87 (and .def_86 .def_84))) (let ((.def_88 (not A8))) (let ((.def_89 (or A1 .def_88))) (let ((.def_90 (not A9))) (let ((.def_91 (or .def_90 A4))) (let ((.def_92 (and .def_91 .def_89))) (let ((.def_93 (and .def_92 .def_87))) (let ((.def_94 (not .def_93))) (let ((.def_95 (or .def_94 .def_79))) (let ((.def_96 (not .def_95))) (let ((.def_97 (or .def_96 .def_57))) (let ((.def_98 (not A7))) (let ((.def_99 (and .def_98 .def_20))) (let ((.def_100 (and .def_88 A2))) (let ((.def_101 (or .def_100 .def_99))) (let ((.def_102 (+ .def_34 .def_30))) (let ((.def_103 (< .def_102 (- 1)))) (let ((.def_104 (not .def_103))) (let ((.def_105 (or .def_104 A1))) (let ((.def_106 (* (- 1) x8))) (let ((.def_107 (< .def_106 (- 1)))) (let ((.def_108 (+ .def_7 .def_106))) (let ((.def_109 (< .def_108 (- 1)))) (let ((.def_110 (and .def_109 .def_107))) (let ((.def_111 (not .def_110))) (let ((.def_112 (and .def_111 .def_105))) (let ((.def_113 (= .def_112 .def_101))) (let ((.def_114 (< .def_34 1))) (let ((.def_115 (+ .def_10 .def_0))) (let ((.def_116 (< .def_115 (- 1)))) (let ((.def_117 (and .def_116 .def_114))) (let ((.def_118 (not .def_117))) (let ((.def_119 (< .def_35 1))) (let ((.def_120 (not .def_119))) (let ((.def_121 (* (- 1) x9))) (let ((.def_122 (+ .def_121 .def_58))) (let ((.def_123 (< .def_122 (- 1)))) (let ((.def_124 (and .def_123 .def_120))) (let ((.def_125 (and .def_124 .def_118))) (let ((.def_126 (not .def_125))) (let ((.def_127 (and .def_81 A3))) (let ((.def_128 (< .def_11 (- 1)))) (let ((.def_129 (< .def_10 1))) (let ((.def_130 (not .def_129))) (let ((.def_131 (and .def_130 .def_128))) (let ((.def_132 (or .def_131 .def_127))) (let ((.def_133 (not .def_132))) (let ((.def_134 (= .def_133 .def_126))) (let ((.def_135 (not .def_134))) (let ((.def_136 (or .def_135 .def_113))) (let ((.def_137 (not .def_136))) (let ((.def_138 (and .def_90 A5))) (let ((.def_139 (< .def_121 1))) (let ((.def_140 (< .def_106 1))) (let ((.def_141 (not .def_140))) (let ((.def_142 (and .def_141 .def_139))) (let ((.def_143 (or .def_142 .def_138))) (let ((.def_144 (not .def_143))) (let ((.def_145 (< .def_18 (- 1)))) (let ((.def_146 (not .def_145))) (let ((.def_147 (and A8 .def_146))) (let ((.def_148 (not .def_147))) (let ((.def_149 (< .def_58 (- 1)))) (let ((.def_150 (or .def_146 .def_149))) (let ((.def_151 (not .def_150))) (let ((.def_152 (or .def_151 .def_148))) (let ((.def_153 (not .def_152))) (let ((.def_154 (or .def_153 .def_144))) (let ((.def_155 (not .def_154))) (let ((.def_156 (* 1 x3))) (let ((.def_157 (< .def_156 (- 1)))) (let ((.def_158 (and .def_157 A4))) (let ((.def_159 (* (- 1) x6))) (let ((.def_160 (+ .def_30 .def_159))) (let ((.def_161 (< .def_160 (- 1)))) (let ((.def_162 (not .def_161))) (let ((.def_163 (and .def_162 A6))) (let ((.def_164 (not .def_163))) (let ((.def_165 (or .def_164 .def_158))) (let ((.def_166 (not .def_165))) (let ((.def_167 (+ .def_58 .def_156))) (let ((.def_168 (< .def_167 1))) (let ((.def_169 (not .def_168))) (let ((.def_170 (= .def_169 A9))) (let ((.def_171 (+ .def_30 .def_121))) (let ((.def_172 (< .def_171 1))) (let ((.def_173 (not .def_172))) (let ((.def_174 (= .def_98 .def_173))) (let ((.def_175 (and .def_174 .def_170))) (let ((.def_176 (or .def_175 .def_166))) (let ((.def_177 (not .def_176))) (let ((.def_178 (or .def_177 .def_155))) (let ((.def_179 (or .def_178 .def_137))) (let ((.def_180 (or .def_179 .def_97))) (let ((.def_181 (not .def_180))) (let ((.def_182 (+ .def_106 .def_156))) (let ((.def_183 (< .def_182 (- 1)))) (let ((.def_184 (not .def_183))) (let ((.def_185 (not A6))) (let ((.def_186 (or .def_185 .def_184))) (let ((.def_187 (< .def_22 1))) (let ((.def_188 (< .def_0 1))) (let ((.def_189 (not .def_188))) (let ((.def_190 (or .def_189 .def_187))) (let ((.def_191 (or .def_190 .def_186))) (let ((.def_192 (not .def_191))) (let ((.def_193 (not .def_142))) (let ((.def_194 (not A4))) (let ((.def_195 (and A6 .def_194))) (let ((.def_196 (and .def_195 .def_193))) (let ((.def_197 (not .def_196))) (let ((.def_198 (or .def_197 .def_192))) (let ((.def_199 (not A0))) (let ((.def_200 (and .def_199 .def_98))) (let ((.def_201 (+ .def_29 .def_48))) (let ((.def_202 (< .def_201 (- 1)))) (let ((.def_203 (not .def_202))) (let ((.def_204 (and .def_203 .def_88))) (let ((.def_205 (or .def_204 .def_200))) (let ((.def_206 (not .def_205))) (let ((.def_207 (+ .def_121 .def_18))) (let ((.def_208 (< .def_207 (- 1)))) (let ((.def_209 (or .def_208 .def_194))) (let ((.def_210 (< .def_1 (- 1)))) (let ((.def_211 (not .def_210))) (let ((.def_212 (= .def_211 .def_185))) (let ((.def_213 (not .def_212))) (let ((.def_214 (and .def_213 .def_209))) (let ((.def_215 (not .def_214))) (let ((.def_216 (and .def_215 .def_206))) (let ((.def_217 (not .def_216))) (let ((.def_218 (or .def_217 .def_198))) (let ((.def_219 (+ .def_29 .def_58))) (let ((.def_220 (< .def_219 1))) (let ((.def_221 (+ .def_18 .def_73))) (let ((.def_222 (< .def_221 1))) (let ((.def_223 (not .def_222))) (let ((.def_224 (or .def_223 .def_220))) (let ((.def_225 (+ .def_1 .def_18))) (let ((.def_226 (< .def_225 (- 1)))) (let ((.def_227 (not .def_226))) (let ((.def_228 (or A1 .def_227))) (let ((.def_229 (not .def_228))) (let ((.def_230 (= .def_229 .def_224))) (let ((.def_231 (+ .def_49 .def_159))) (let ((.def_232 (< .def_231 (- 1)))) (let ((.def_233 (and A4 .def_232))) (let ((.def_234 (not .def_233))) (let ((.def_235 (+ .def_22 .def_30))) (let ((.def_236 (< .def_235 (- 1)))) (let ((.def_237 (and .def_236 A8))) (let ((.def_238 (or .def_237 .def_234))) (let ((.def_239 (not .def_238))) (let ((.def_240 (and .def_239 .def_230))) (let ((.def_241 (< .def_22 (- 1)))) (let ((.def_242 (or .def_185 .def_241))) (let ((.def_243 (not .def_39))) (let ((.def_244 (and .def_243 A2))) (let ((.def_245 (= .def_244 .def_242))) (let ((.def_246 (not .def_82))) (let ((.def_247 (and A9 .def_246))) (let ((.def_248 (and A9 A6))) (let ((.def_249 (not .def_248))) (let ((.def_250 (and .def_249 .def_247))) (let ((.def_251 (not .def_250))) (let ((.def_252 (and .def_251 .def_245))) (let ((.def_253 (not .def_252))) (let ((.def_254 (and .def_253 .def_240))) (let ((.def_255 (not .def_254))) (let ((.def_256 (and .def_255 .def_218))) (let ((.def_257 (not .def_256))) (let ((.def_258 (+ .def_0 .def_29))) (let ((.def_259 (< .def_258 (- 1)))) (let ((.def_260 (not .def_259))) (let ((.def_261 (and .def_260 A8))) (let ((.def_262 (+ .def_30 .def_1))) (let ((.def_263 (< .def_262 (- 1)))) (let ((.def_264 (not .def_263))) (let ((.def_265 (and .def_146 .def_264))) (let ((.def_266 (not .def_265))) (let ((.def_267 (and .def_266 .def_261))) (let ((.def_268 (and A9 A2))) (let ((.def_269 (not .def_268))) (let ((.def_270 (or A5 .def_199))) (let ((.def_271 (not .def_270))) (let ((.def_272 (and .def_271 .def_269))) (let ((.def_273 (and .def_272 .def_267))) (let ((.def_274 (not .def_273))) (let ((.def_275 (< .def_167 (- 1)))) (let ((.def_276 (not .def_275))) (let ((.def_277 (= .def_276 A5))) (let ((.def_278 (not .def_277))) (let ((.def_279 (+ .def_156 .def_10))) (let ((.def_280 (< .def_279 1))) (let ((.def_281 (and .def_280 .def_194))) (let ((.def_282 (or .def_281 .def_278))) (let ((.def_283 (not .def_282))) (let ((.def_284 (< .def_1 1))) (let ((.def_285 (not .def_284))) (let ((.def_286 (< .def_29 1))) (let ((.def_287 (or .def_286 .def_285))) (let ((.def_288 (or .def_161 .def_98))) (let ((.def_289 (and .def_288 .def_287))) (let ((.def_290 (not .def_289))) (let ((.def_291 (or .def_290 .def_283))) (let ((.def_292 (and .def_291 .def_274))) (let ((.def_293 (or .def_88 .def_194))) (let ((.def_294 (* 1 x9))) (let ((.def_295 (+ .def_294 .def_34))) (let ((.def_296 (< .def_295 1))) (let ((.def_297 (or A2 .def_296))) (let ((.def_298 (or .def_297 .def_293))) (let ((.def_299 (not .def_298))) (let ((.def_300 (or A6 .def_8))) (let ((.def_301 (not .def_300))) (let ((.def_302 (or .def_194 A7))) (let ((.def_303 (and .def_302 .def_301))) (let ((.def_304 (not .def_303))) (let ((.def_305 (and .def_304 .def_299))) (let ((.def_306 (not .def_305))) (let ((.def_307 (+ .def_294 .def_0))) (let ((.def_308 (< .def_307 (- 1)))) (let ((.def_309 (or .def_157 .def_308))) (let ((.def_310 (+ .def_49 .def_18))) (let ((.def_311 (< .def_310 (- 1)))) (let ((.def_312 (not .def_311))) (let ((.def_313 (and .def_312 .def_139))) (let ((.def_314 (not .def_313))) (let ((.def_315 (and .def_314 .def_309))) (let ((.def_316 (not .def_315))) (let ((.def_317 (and A7 A4))) (let ((.def_318 (+ .def_58 .def_1))) (let ((.def_319 (< .def_318 1))) (let ((.def_320 (or .def_319 .def_88))) (let ((.def_321 (not .def_320))) (let ((.def_322 (and .def_321 .def_317))) (let ((.def_323 (or .def_322 .def_316))) (let ((.def_324 (and .def_323 .def_306))) (let ((.def_325 (and .def_324 .def_292))) (let ((.def_326 (or .def_325 .def_257))) (let ((.def_327 (not .def_326))) (let ((.def_328 (or .def_327 .def_181))) (let ((.def_329 (not .def_328))) (let ((.def_330 (<= x9 1))) (let ((.def_331 (<= 0 x9))) (let ((.def_332 (<= x8 1))) (let ((.def_333 (<= 0 x8))) (let ((.def_334 (<= x7 1))) (let ((.def_335 (<= 0 x7))) (let ((.def_336 (<= x6 1))) (let ((.def_337 (<= 0 x6))) (let ((.def_338 (<= x5 1))) (let ((.def_339 (<= 0 x5))) (let ((.def_340 (<= x4 1))) (let ((.def_341 (<= 0 x4))) (let ((.def_342 (<= x3 1))) (let ((.def_343 (<= 0 x3))) (let ((.def_344 (<= x2 1))) (let ((.def_345 (<= 0 x2))) (let ((.def_346 (<= x1 1))) (let ((.def_347 (<= 0 x1))) (let ((.def_348 (<= x0 1))) (let ((.def_349 (<= 0 x0))) (let ((.def_350 (and .def_349 .def_348 .def_347 .def_346 .def_345 .def_344 .def_343 .def_342 .def_341 .def_340 .def_339 .def_338 .def_337 .def_336 .def_335 .def_334 .def_333 .def_332 .def_331 .def_330 .def_329))) .def_350))))))))))))))))))))))))))))))))))))))))))))))))))))))))))))))))))))))))))))))))))))))))))))))))))))))))))))))))))))))))))))))))))))))))))))))))))))))))))))))))))))))))))))))))))))))))))))))))))))))))))))))))))))))))))))))))))))))))))))))))))))))))))))))))))))))))))))))))))))))))))))))))))))))))))))))))))))))))))))))))))))))))))))))))))))))))))))))))
(check-sat)
